9 10 8 4 3 7 2 0 1 13 12 11 5 6 9
9 10 8 7 3 4 2 0 1 13 12 11 5 6 9
9 10 8 7 13 1 0 2 4 3 12 11 5 6 9
3 4 2 0 7 8 10 9 1 13 12 11 5 6 3
13 2 0 1 9 10 8 7 3 4 6 5 11 12 13
12 7 8 10 9 1 0 13 4 3 2 11 5 6 12
12 7 8 10 9 0 1 2 11 5 3 4 13 6 12
12 7 10 8 9 0 1 2 11 4 3 5 13 6 12
12 7 8 10 9 0 1 2 13 4 3 5 11 6 12
12 7 10 8 9 0 1 2 13 4 3 5 11 6 12
